* #variable= 192 #constraint= 64 #equal= 64 intsize= 10 #product= 576 sizeproduct= 1152
min: -1 x105 x116 +1 x105 x127 -1 x105 x138 -1 x105 x149 +1 x105 x160 -1 x105 x171 +1 x116 x182 +1 x1 x116 +1 x12 x116 +1 x23 x116 -1 x34 x116 -1 x127 x182 +1 x45 x127 +1 x56 x127 +1 x67 x127 +1 x78 x127 +1 x1 x138 -1 x45 x138 -1 x89 x138 +1 x100 x138 +1 x106 x138 -1 x12 x149 -1 x56 x149 +1 x89 x149 -1 x107 x149 -1 x108 x149 +1 x23 x160 +1 x67 x160 -1 x100 x160 +1 x107 x160 +1 x109 x160 +1 x34 x171 -1 x78 x171 -1 x106 x171 +1 x108 x171 +1 x109 x171 +1 x110 x182 -1 x111 x182 -1 x112 x182 -1 x113 x182 +1 x1 x110 +1 x1 x114 +1 x1 x115 -1 x1 x117 -1 x12 x111 +1 x12 x114 -1 x12 x118 +1 x12 x119 +1 x23 x112 -1 x23 x115 -1 x23 x118 +1 x23 x120 -1 x34 x113 -1 x34 x117 -1 x34 x119 +1 x34 x120 -1 x45 x110 -1 x45 x121 -1 x45 x122 -1 x45 x123 +1 x56 x111 +1 x56 x121 +1 x56 x124 -1 x56 x125 +1 x67 x112 -1 x67 x122 +1 x67 x124 -1 x67 x126 -1 x78 x113 +1 x78 x123 -1 x78 x125 +1 x78 x126 +1 x89 x114 +1 x89 x121 +1 x89 x128 +1 x89 x129 -1 x100 x115 -1 x100 x122 +1 x100 x128 -1 x100 x130 +1 x106 x117 +1 x106 x123 -1 x106 x129 -1 x106 x130 -1 x107 x118 -1 x107 x124 +1 x107 x128 -1 x107 x131 -1 x108 x119 +1 x108 x125 +1 x108 x129 +1 x108 x131 -1 x109 x120 -1 x109 x126 -1 x109 x130 -1 x109 x131 +1 x110 x132 +1 x110 x133 +1 x110 x134 +1 x111 x132 +1 x111 x135 +1 x111 x136 -1 x112 x133 +1 x112 x135 +1 x112 x137 -1 x113 x134 -1 x113 x136 -1 x113 x137 +1 x114 x132 -1 x114 x139 +1 x114 x140 -1 x115 x133 -1 x115 x139 -1 x115 x141 +1 x117 x134 +1 x117 x140 +1 x117 x141 -1 x118 x135 +1 x118 x139 +1 x118 x142 +1 x119 x136 +1 x119 x140 +1 x119 x142 -1 x120 x137 +1 x120 x141 +1 x120 x142 -1 x121 x132 -1 x121 x143 +1 x121 x144 +1 x122 x133 -1 x122 x143 +1 x122 x145 +1 x123 x134 -1 x123 x144 -1 x123 x145 -1 x124 x135 +1 x124 x143 -1 x124 x146 +1 x125 x136 -1 x125 x144 +1 x125 x146 -1 x126 x137 -1 x126 x145 -1 x126 x146 -1 x128 x139 +1 x128 x143 -1 x128 x147 -1 x129 x140 +1 x129 x144 -1 x129 x147 -1 x130 x141 -1 x130 x145 +1 x130 x147 -1 x131 x142 +1 x131 x146 +1 x131 x147 -1 x132 x148 +1 x132 x150 +1 x133 x148 +1 x133 x151 -1 x134 x150 +1 x134 x151 +1 x135 x148 -1 x135 x152 -1 x136 x150 +1 x136 x152 +1 x137 x151 -1 x137 x152 +1 x139 x148 -1 x139 x153 -1 x140 x150 -1 x140 x153 -1 x141 x151 +1 x141 x153 +1 x142 x152 -1 x142 x153 -1 x143 x148 -1 x143 x154 +1 x144 x150 -1 x144 x154 -1 x145 x151 +1 x145 x154 -1 x146 x152 -1 x146 x154 -1 x147 x153 +1 x147 x154 -1 x148 x155 -1 x150 x155 +1 x151 x155 +1 x152 x155 +1 x153 x155 -1 x154 x155 -1 x156 x157 +1 x156 x158 -1 x156 x159 -1 x156 x161 +1 x156 x162 -1 x156 x163 +1 x157 x164 +1 x157 x165 +1 x157 x166 +1 x157 x167 -1 x157 x168 -1 x158 x164 +1 x158 x169 +1 x158 x170 +1 x158 x172 +1 x158 x173 +1 x159 x165 -1 x159 x169 -1 x159 x174 +1 x159 x175 +1 x159 x176 -1 x161 x166 -1 x161 x170 +1 x161 x174 -1 x161 x177 -1 x161 x178 +1 x162 x167 +1 x162 x172 -1 x162 x175 +1 x162 x177 +1 x162 x179 +1 x163 x168 -1 x163 x173 -1 x163 x176 +1 x163 x178 +1 x163 x179 +1 x164 x180 -1 x164 x181 -1 x164 x183 -1 x164 x184 +1 x165 x180 +1 x165 x185 +1 x165 x186 -1 x165 x187 -1 x166 x181 +1 x166 x185 -1 x166 x188 +1 x166 x189 +1 x167 x183 -1 x167 x186 -1 x167 x188 +1 x167 x190 -1 x168 x184 -1 x168 x187 -1 x168 x189 +1 x168 x190 -1 x169 x180 -1 x169 x191 -1 x169 x192 -1 x2 x169 +1 x170 x181 +1 x170 x191 +1 x3 x170 -1 x4 x170 +1 x172 x183 -1 x172 x192 +1 x3 x172 -1 x5 x172 -1 x173 x184 +1 x2 x173 -1 x4 x173 +1 x5 x173 +1 x174 x185 +1 x174 x191 +1 x6 x174 +1 x7 x174 -1 x175 x186 -1 x175 x192 +1 x6 x175 -1 x8 x175 +1 x176 x187 +1 x2 x176 -1 x7 x176 -1 x8 x176 -1 x177 x188 -1 x3 x177 +1 x6 x177 -1 x9 x177 -1 x178 x189 +1 x4 x178 +1 x7 x178 +1 x9 x178 -1 x179 x190 -1 x5 x179 -1 x8 x179 -1 x9 x179 +1 x10 x180 +1 x11 x180 +1 x13 x180 +1 x10 x181 +1 x14 x181 +1 x15 x181 -1 x11 x183 +1 x14 x183 +1 x16 x183 -1 x13 x184 -1 x15 x184 -1 x16 x184 +1 x10 x185 -1 x17 x185 +1 x18 x185 -1 x11 x186 -1 x17 x186 -1 x19 x186 +1 x13 x187 +1 x18 x187 +1 x19 x187 -1 x14 x188 +1 x17 x188 +1 x20 x188 +1 x15 x189 +1 x18 x189 +1 x20 x189 -1 x16 x190 +1 x19 x190 +1 x20 x190 -1 x10 x191 -1 x21 x191 +1 x22 x191 +1 x11 x192 -1 x21 x192 +1 x24 x192 +1 x2 x13 -1 x2 x22 -1 x2 x24 -1 x3 x14 +1 x3 x21 -1 x3 x25 +1 x4 x15 -1 x4 x22 +1 x4 x25 -1 x5 x16 -1 x5 x24 -1 x5 x25 -1 x6 x17 +1 x6 x21 -1 x6 x26 -1 x7 x18 +1 x7 x22 -1 x7 x26 -1 x8 x19 -1 x8 x24 +1 x8 x26 -1 x9 x20 +1 x9 x25 +1 x9 x26 -1 x10 x27 +1 x10 x28 +1 x11 x27 +1 x11 x29 -1 x13 x28 +1 x13 x29 +1 x14 x27 -1 x14 x30 -1 x15 x28 +1 x15 x30 +1 x16 x29 -1 x16 x30 +1 x17 x27 -1 x17 x31 -1 x18 x28 -1 x18 x31 -1 x19 x29 +1 x19 x31 +1 x20 x30 -1 x20 x31 -1 x21 x27 -1 x21 x32 +1 x22 x28 -1 x22 x32 -1 x24 x29 +1 x24 x32 -1 x25 x30 -1 x25 x32 -1 x26 x31 +1 x26 x32 -1 x27 x33 -1 x28 x33 +1 x29 x33 +1 x30 x33 +1 x31 x33 -1 x32 x33 -1 x35 x36 +1 x35 x37 -1 x35 x38 -1 x35 x39 +1 x35 x40 -1 x35 x41 +1 x36 x42 +1 x36 x43 +1 x36 x44 +1 x36 x46 -1 x36 x47 -1 x37 x42 +1 x37 x48 +1 x37 x49 +1 x37 x50 +1 x37 x51 +1 x38 x43 -1 x38 x48 -1 x38 x52 +1 x38 x53 +1 x38 x54 -1 x39 x44 -1 x39 x49 +1 x39 x52 -1 x39 x55 -1 x39 x57 +1 x40 x46 +1 x40 x50 -1 x40 x53 +1 x40 x55 +1 x40 x58 +1 x41 x47 -1 x41 x51 -1 x41 x54 +1 x41 x57 +1 x41 x58 +1 x42 x59 -1 x42 x60 -1 x42 x61 -1 x42 x62 +1 x43 x59 +1 x43 x63 +1 x43 x64 -1 x43 x65 -1 x44 x60 +1 x44 x63 -1 x44 x66 +1 x44 x68 +1 x46 x61 -1 x46 x64 -1 x46 x66 +1 x46 x69 -1 x47 x62 -1 x47 x65 -1 x47 x68 +1 x47 x69 -1 x48 x59 -1 x48 x70 -1 x48 x71 -1 x48 x72 +1 x49 x60 +1 x49 x70 +1 x49 x73 -1 x49 x74 +1 x50 x61 -1 x50 x71 +1 x50 x73 -1 x50 x75 -1 x51 x62 +1 x51 x72 -1 x51 x74 +1 x51 x75 +1 x52 x63 +1 x52 x70 +1 x52 x76 +1 x52 x77 -1 x53 x64 -1 x53 x71 +1 x53 x76 -1 x53 x79 +1 x54 x65 +1 x54 x72 -1 x54 x77 -1 x54 x79 -1 x55 x66 -1 x55 x73 +1 x55 x76 -1 x55 x80 -1 x57 x68 +1 x57 x74 +1 x57 x77 +1 x57 x80 -1 x58 x69 -1 x58 x75 -1 x58 x79 -1 x58 x80 +1 x59 x81 +1 x59 x82 +1 x59 x83 +1 x60 x81 +1 x60 x84 +1 x60 x85 -1 x61 x82 +1 x61 x84 +1 x61 x86 -1 x62 x83 -1 x62 x85 -1 x62 x86 +1 x63 x81 -1 x63 x87 +1 x63 x88 -1 x64 x82 -1 x64 x87 -1 x64 x90 +1 x65 x83 +1 x65 x88 +1 x65 x90 -1 x66 x84 +1 x66 x87 +1 x66 x91 +1 x68 x85 +1 x68 x88 +1 x68 x91 -1 x69 x86 +1 x69 x90 +1 x69 x91 -1 x70 x81 -1 x70 x92 +1 x70 x93 +1 x71 x82 -1 x71 x92 +1 x71 x94 +1 x72 x83 -1 x72 x93 -1 x72 x94 -1 x73 x84 +1 x73 x92 -1 x73 x95 +1 x74 x85 -1 x74 x93 +1 x74 x95 -1 x75 x86 -1 x75 x94 -1 x75 x95 -1 x76 x87 +1 x76 x92 -1 x76 x96 -1 x77 x88 +1 x77 x93 -1 x77 x96 -1 x79 x90 -1 x79 x94 +1 x79 x96 -1 x80 x91 +1 x80 x95 +1 x80 x96 -1 x81 x97 +1 x81 x98 +1 x82 x97 +1 x82 x99 -1 x83 x98 +1 x83 x99 +1 x84 x97 -1 x84 x101 -1 x85 x98 +1 x85 x101 +1 x86 x99 -1 x86 x101 +1 x87 x97 -1 x87 x102 -1 x88 x98 -1 x88 x102 -1 x90 x99 +1 x90 x102 +1 x91 x101 -1 x91 x102 -1 x92 x97 -1 x92 x103 +1 x93 x98 -1 x93 x103 -1 x94 x99 +1 x94 x103 -1 x95 x101 -1 x95 x103 -1 x96 x102 +1 x96 x103 -1 x97 x104 -1 x98 x104 +1 x99 x104 +1 x101 x104 +1 x102 x104 -1 x103 x104 ;
+1 x105 +1 x156 +1 x35 = 1;
+1 x116 +1 x157 +1 x36 = 1;
+1 x182 +1 x164 +1 x42 = 1;
+1 x127 +1 x158 +1 x37 = 1;
+1 x138 +1 x159 +1 x38 = 1;
+1 x1 +1 x165 +1 x43 = 1;
+1 x110 +1 x180 +1 x59 = 1;
+1 x45 +1 x169 +1 x48 = 1;
+1 x89 +1 x174 +1 x52 = 1;
+1 x114 +1 x185 +1 x63 = 1;
+1 x132 +1 x10 +1 x81 = 1;
+1 x121 +1 x191 +1 x70 = 1;
+1 x149 +1 x161 +1 x39 = 1;
+1 x12 +1 x166 +1 x44 = 1;
+1 x111 +1 x181 +1 x60 = 1;
+1 x56 +1 x170 +1 x49 = 1;
+1 x160 +1 x162 +1 x40 = 1;
+1 x23 +1 x167 +1 x46 = 1;
+1 x112 +1 x183 +1 x61 = 1;
+1 x67 +1 x172 +1 x50 = 1;
+1 x100 +1 x175 +1 x53 = 1;
+1 x115 +1 x186 +1 x64 = 1;
+1 x133 +1 x11 +1 x82 = 1;
+1 x122 +1 x192 +1 x71 = 1;
+1 x128 +1 x6 +1 x76 = 1;
+1 x139 +1 x17 +1 x87 = 1;
+1 x148 +1 x27 +1 x97 = 1;
+1 x143 +1 x21 +1 x92 = 1;
+1 x107 +1 x177 +1 x55 = 1;
+1 x118 +1 x188 +1 x66 = 1;
+1 x135 +1 x14 +1 x84 = 1;
+1 x124 +1 x3 +1 x73 = 1;
+1 x109 +1 x179 +1 x58 = 1;
+1 x120 +1 x190 +1 x69 = 1;
+1 x137 +1 x16 +1 x86 = 1;
+1 x126 +1 x5 +1 x75 = 1;
+1 x130 +1 x8 +1 x79 = 1;
+1 x141 +1 x19 +1 x90 = 1;
+1 x151 +1 x29 +1 x99 = 1;
+1 x145 +1 x24 +1 x94 = 1;
+1 x147 +1 x26 +1 x96 = 1;
+1 x153 +1 x31 +1 x102 = 1;
+1 x155 +1 x33 +1 x104 = 1;
+1 x154 +1 x32 +1 x103 = 1;
+1 x131 +1 x9 +1 x80 = 1;
+1 x142 +1 x20 +1 x91 = 1;
+1 x152 +1 x30 +1 x101 = 1;
+1 x146 +1 x25 +1 x95 = 1;
+1 x171 +1 x163 +1 x41 = 1;
+1 x34 +1 x168 +1 x47 = 1;
+1 x113 +1 x184 +1 x62 = 1;
+1 x78 +1 x173 +1 x51 = 1;
+1 x106 +1 x176 +1 x54 = 1;
+1 x117 +1 x187 +1 x65 = 1;
+1 x134 +1 x13 +1 x83 = 1;
+1 x123 +1 x2 +1 x72 = 1;
+1 x129 +1 x7 +1 x77 = 1;
+1 x140 +1 x18 +1 x88 = 1;
+1 x150 +1 x28 +1 x98 = 1;
+1 x144 +1 x22 +1 x93 = 1;
+1 x108 +1 x178 +1 x57 = 1;
+1 x119 +1 x189 +1 x68 = 1;
+1 x136 +1 x15 +1 x85 = 1;
+1 x125 +1 x4 +1 x74 = 1;
